proyfinal/src/viki/013/experimentInOfficeAgust.take6.output/2766ef3c-3036-41f7-aec8-86e51abd2a65.als.out
Reading from standard input... Use '--help' for help.
============================[ Problem Statistics ]=============================
|                                                                             |
|  Number of variables:         87638                                         |
|  Number of clauses:          161767                                         |
|  Parse time:                   0.03 s                                       |
|                                                                             |
============================[ Search Statistics ]==============================
| Conflicts |          ORIGINAL         |          LEARNT          | Progress |
|           |    Vars  Clauses Literals |    Limit  Clauses Lit/Cl |          |
===============================================================================
|       100 |   63210   108246   270333 |    39690      100      8 | 27.874 % |
|       250 |   63210   108246   270333 |    43659      250     14 | 27.874 % |
|       475 |   63210   108246   270333 |    48025      475     18 | 27.874 % |
|       812 |   63210   108246   270333 |    52827      812     23 | 27.874 % |
|      1318 |   63209   108202   270243 |    58110     1316     33 | 27.875 % |
|      2077 |   63171   108050   269884 |    63921     2072     41 | 27.918 % |
|      3216 |   63171   108050   269884 |    70313     3211     54 | 27.918 % |
|      4924 |   63056   108047   269878 |    77344     4917     66 | 28.049 % |
|      7486 |   63056   107582   268808 |    85079     7400     70 | 28.049 % |
|     11330 |   63056   107582   268808 |    93587    11244     86 | 28.049 % |
===============================================================================
restarts              : 61
conflicts             : 14409          (7696 /sec)
decisions             : 52995          (0.00 % random) (28304 /sec)
propagations          : 18417203       (9836568 /sec)
conflict literals     : 1313865        (47.33 % deleted)
Memory used           : 33.99 MB
CPU time              : 1.87232 s

INDETERMINATE
